(set-logic HORN)
(set-info :source |
  Benchmark: test_safe_2019/mochi/bcopy.ml
  Generated by MoCHi
|)
(set-info :status unknown)
(declare-fun |fail_24[40:0]| ( Int) Bool)
(declare-fun |bcopy_aux[32:3]| ( Int  Int  Int  Int) Bool)
(assert (not (exists ((x0 Int)) (|fail_24[40:0]| x0))))
(assert (forall ((x0 Int)(x1 Int)(var11 Int)(x2 Int)(var10 Int)) (=> (and (|bcopy_aux[32:3]| x2 var10 x1 var11) (and (<= (+ 1 x1) var11) (or (>= 0 (+ 1 x1)) (>= x1 x2)))) (|fail_24[40:0]| x0))))
(assert (forall ((x4 Int)(x5 Int)(x0 Int)(x1 Int)) (=> (and (= x0 0) (and (<= x1 x5) (= x1 x4))) (|bcopy_aux[32:3]| x4 x5 x0 x1))))
(check-sat)
(get-model)
(exit)
